Generations:
0: ((29, 9, 32, 6, 41, 7, 48, 1, 46, 45, 16, 42, 13, 21, 40, 28, 12, 37, 14, 26, 18, 11, 5, 0, 27, 15, 30, 10, 23, 2, 38, 8, 49, 3, 25, 17, 35, 34, 31, 22, 4, 43, 19, 24, 33, 47, 39, 20, 36, 44), 1208)
1: ((27, 2, 20, 34, 21, 9, 10, 45, 1, 48, 12, 35, 24, 32, 30, 17, 8, 39, 49, 38, 3, 46, 22, 15, 6, 5, 7, 11, 33, 37, 19, 44, 36, 13, 29, 40, 41, 42, 0, 31, 47, 4, 43, 28, 26, 14, 23, 25, 16, 18), 1200)
2: ((29, 48, 44, 28, 9, 27, 32, 12, 20, 47, 38, 15, 14, 26, 42, 2, 22, 10, 37, 1, 21, 46, 41, 43, 33, 34, 45, 40, 30, 23, 6, 39, 3, 49, 35, 13, 18, 8, 25, 17, 7, 31, 19, 36, 11, 0, 24, 4, 5, 16), 1158)
3: ((29, 48, 44, 28, 9, 27, 32, 12, 20, 47, 38, 15, 14, 26, 42, 2, 22, 10, 37, 1, 21, 46, 41, 43, 33, 34, 45, 40, 30, 23, 6, 39, 3, 49, 35, 13, 18, 8, 25, 17, 7, 31, 19, 36, 11, 0, 24, 4, 5, 16), 1158)
4: ((29, 48, 44, 28, 9, 27, 32, 12, 20, 47, 38, 15, 14, 26, 42, 2, 22, 10, 37, 1, 21, 46, 41, 43, 33, 34, 45, 40, 30, 23, 6, 39, 3, 49, 35, 13, 18, 8, 25, 17, 7, 31, 19, 36, 11, 0, 24, 4, 5, 16), 1158)
5: ((29, 48, 44, 28, 9, 27, 32, 12, 20, 47, 38, 15, 14, 26, 42, 2, 22, 10, 37, 1, 21, 46, 41, 43, 33, 34, 45, 40, 30, 23, 6, 39, 3, 49, 35, 13, 18, 8, 25, 17, 7, 31, 19, 36, 11, 0, 24, 4, 5, 16), 1158)
6: ((29, 48, 44, 28, 9, 27, 32, 12, 20, 47, 38, 15, 14, 26, 42, 2, 22, 10, 37, 1, 21, 46, 41, 43, 33, 34, 45, 40, 30, 23, 6, 39, 3, 49, 35, 13, 18, 8, 25, 17, 7, 31, 19, 36, 11, 0, 24, 4, 5, 16), 1158)
7: ((29, 48, 44, 28, 9, 27, 32, 12, 20, 47, 38, 15, 14, 26, 42, 2, 22, 10, 37, 1, 21, 46, 41, 43, 33, 34, 45, 40, 30, 23, 6, 39, 3, 49, 35, 13, 18, 8, 25, 17, 7, 31, 19, 36, 11, 0, 24, 4, 5, 16), 1158)
8: ((29, 48, 44, 28, 9, 27, 32, 12, 20, 47, 38, 15, 14, 26, 42, 2, 22, 10, 37, 1, 21, 46, 41, 43, 33, 34, 45, 40, 30, 23, 6, 39, 3, 49, 35, 13, 18, 8, 25, 17, 7, 31, 19, 36, 11, 0, 24, 4, 5, 16), 1158)
9: ((29, 48, 44, 28, 9, 27, 32, 12, 20, 47, 38, 15, 14, 26, 42, 2, 22, 10, 37, 1, 21, 46, 41, 43, 33, 34, 45, 40, 30, 23, 6, 39, 3, 49, 35, 13, 18, 8, 25, 17, 7, 31, 19, 36, 11, 0, 24, 4, 5, 16), 1158)
10: ((29, 48, 44, 28, 9, 27, 32, 12, 20, 47, 38, 15, 14, 26, 42, 2, 22, 10, 37, 1, 21, 46, 41, 43, 33, 34, 45, 40, 30, 23, 6, 39, 3, 49, 35, 13, 18, 8, 25, 17, 7, 31, 19, 36, 11, 0, 24, 4, 5, 16), 1158)
11: ((0, 20, 49, 9, 18, 31, 14, 27, 15, 19, 41, 21, 40, 37, 48, 29, 23, 12, 35, 43, 34, 5, 17, 8, 10, 36, 45, 6, 28, 24, 44, 4, 3, 38, 26, 16, 33, 39, 30, 11, 32, 25, 2, 13, 42, 47, 1, 22, 7, 46), 1151)
12: ((0, 20, 49, 9, 18, 31, 14, 27, 15, 19, 41, 21, 40, 37, 48, 29, 23, 12, 35, 43, 34, 5, 17, 8, 10, 36, 45, 6, 28, 24, 44, 4, 3, 38, 26, 16, 33, 39, 30, 11, 32, 25, 2, 13, 42, 47, 1, 22, 7, 46), 1151)
13: ((41, 40, 39, 13, 17, 14, 32, 35, 3, 19, 27, 45, 11, 0, 16, 44, 20, 31, 1, 18, 10, 36, 42, 38, 9, 49, 26, 12, 25, 34, 2, 28, 37, 4, 30, 47, 22, 15, 29, 43, 5, 8, 6, 24, 21, 33, 7, 48, 23, 46), 1143)
14: ((41, 40, 39, 13, 17, 14, 32, 35, 3, 19, 27, 45, 11, 0, 16, 44, 20, 31, 1, 18, 10, 36, 42, 38, 9, 49, 26, 12, 25, 34, 2, 28, 37, 4, 30, 47, 22, 15, 29, 43, 5, 8, 6, 24, 21, 33, 7, 48, 23, 46), 1143)
15: ((41, 40, 39, 13, 17, 14, 32, 35, 3, 19, 27, 45, 11, 0, 16, 44, 20, 31, 1, 18, 10, 36, 42, 38, 9, 49, 26, 12, 25, 34, 2, 28, 37, 4, 30, 47, 22, 15, 29, 43, 5, 8, 6, 24, 21, 33, 7, 48, 23, 46), 1143)
16: ((41, 40, 39, 13, 17, 14, 32, 35, 3, 19, 27, 45, 11, 0, 16, 44, 20, 31, 1, 18, 10, 36, 42, 38, 9, 49, 26, 12, 25, 34, 2, 28, 37, 4, 30, 47, 22, 15, 29, 43, 5, 8, 6, 24, 21, 33, 7, 48, 23, 46), 1143)
17: ((41, 40, 39, 13, 17, 14, 32, 35, 3, 19, 27, 45, 11, 0, 16, 44, 20, 31, 1, 18, 10, 36, 42, 38, 9, 49, 26, 12, 25, 34, 2, 28, 37, 4, 30, 47, 22, 15, 29, 43, 5, 8, 6, 24, 21, 33, 7, 48, 23, 46), 1143)
18: ((41, 40, 39, 13, 17, 14, 32, 35, 3, 19, 27, 45, 11, 0, 16, 44, 20, 31, 1, 18, 10, 36, 42, 38, 9, 49, 26, 12, 25, 34, 2, 28, 37, 4, 30, 47, 22, 15, 29, 43, 5, 8, 6, 24, 21, 33, 7, 48, 23, 46), 1143)
19: ((41, 40, 39, 13, 17, 14, 32, 35, 3, 19, 27, 45, 11, 0, 16, 44, 20, 31, 1, 18, 10, 36, 42, 38, 9, 49, 26, 12, 25, 34, 2, 28, 37, 4, 30, 47, 22, 15, 29, 43, 5, 8, 6, 24, 21, 33, 7, 48, 23, 46), 1143)
20: ((41, 40, 39, 13, 17, 14, 32, 35, 3, 19, 27, 45, 11, 0, 16, 44, 20, 31, 1, 18, 10, 36, 42, 38, 9, 49, 26, 12, 25, 34, 2, 28, 37, 4, 30, 47, 22, 15, 29, 43, 5, 8, 6, 24, 21, 33, 7, 48, 23, 46), 1143)
21: ((41, 40, 39, 13, 17, 14, 32, 35, 3, 19, 27, 45, 11, 0, 16, 44, 20, 31, 1, 18, 10, 36, 42, 38, 9, 49, 26, 12, 25, 34, 2, 28, 37, 4, 30, 47, 22, 15, 29, 43, 5, 8, 6, 24, 21, 33, 7, 48, 23, 46), 1143)
22: ((41, 40, 39, 13, 17, 14, 32, 35, 3, 19, 27, 45, 11, 0, 16, 44, 20, 31, 1, 18, 10, 36, 42, 38, 9, 49, 26, 12, 25, 34, 2, 28, 37, 4, 30, 47, 22, 15, 29, 43, 5, 8, 6, 24, 21, 33, 7, 48, 23, 46), 1143)
23: ((41, 40, 39, 13, 17, 14, 32, 35, 3, 19, 27, 45, 11, 0, 16, 44, 20, 31, 1, 18, 10, 36, 42, 38, 9, 49, 26, 12, 25, 34, 2, 28, 37, 4, 30, 47, 22, 15, 29, 43, 5, 8, 6, 24, 21, 33, 7, 48, 23, 46), 1143)
24: ((41, 40, 39, 13, 17, 14, 32, 35, 3, 19, 27, 45, 11, 0, 16, 44, 20, 31, 1, 18, 10, 36, 42, 38, 9, 49, 26, 12, 25, 34, 2, 28, 37, 4, 30, 47, 22, 15, 29, 43, 5, 8, 6, 24, 21, 33, 7, 48, 23, 46), 1143)
25: ((41, 40, 39, 13, 17, 14, 32, 35, 3, 19, 27, 45, 11, 0, 16, 44, 20, 31, 1, 18, 10, 36, 42, 38, 9, 49, 26, 12, 25, 34, 2, 28, 37, 4, 30, 47, 22, 15, 29, 43, 5, 8, 6, 24, 21, 33, 7, 48, 23, 46), 1143)
26: ((41, 40, 39, 13, 17, 14, 32, 35, 3, 19, 27, 45, 11, 0, 16, 44, 20, 31, 1, 18, 10, 36, 42, 38, 9, 49, 26, 12, 25, 34, 2, 28, 37, 4, 30, 47, 22, 15, 29, 43, 5, 8, 6, 24, 21, 33, 7, 48, 23, 46), 1143)
27: ((41, 40, 39, 13, 17, 14, 32, 35, 3, 19, 27, 45, 11, 0, 16, 44, 20, 31, 1, 18, 10, 36, 42, 38, 9, 49, 26, 12, 25, 34, 2, 28, 37, 4, 30, 47, 22, 15, 29, 43, 5, 8, 6, 24, 21, 33, 7, 48, 23, 46), 1143)
28: ((41, 40, 39, 13, 17, 14, 32, 35, 3, 19, 27, 45, 11, 0, 16, 44, 20, 31, 1, 18, 10, 36, 42, 38, 9, 49, 26, 12, 25, 34, 2, 28, 37, 4, 30, 47, 22, 15, 29, 43, 5, 8, 6, 24, 21, 33, 7, 48, 23, 46), 1143)
29: ((41, 40, 39, 13, 17, 14, 32, 35, 3, 19, 27, 45, 11, 0, 16, 44, 20, 31, 1, 18, 10, 36, 42, 38, 9, 49, 26, 12, 25, 34, 2, 28, 37, 4, 30, 47, 22, 15, 29, 43, 5, 8, 6, 24, 21, 33, 7, 48, 23, 46), 1143)
30: ((41, 40, 39, 13, 17, 14, 32, 35, 3, 19, 27, 45, 11, 0, 16, 44, 20, 31, 1, 18, 10, 36, 42, 38, 9, 49, 26, 12, 25, 34, 2, 28, 37, 4, 30, 47, 22, 15, 29, 43, 5, 8, 6, 24, 21, 33, 7, 48, 23, 46), 1143)
31: ((41, 40, 39, 13, 17, 14, 32, 35, 3, 19, 27, 45, 11, 0, 16, 44, 20, 31, 1, 18, 10, 36, 42, 38, 9, 49, 26, 12, 25, 34, 2, 28, 37, 4, 30, 47, 22, 15, 29, 43, 5, 8, 6, 24, 21, 33, 7, 48, 23, 46), 1143)
32: ((41, 40, 39, 13, 17, 14, 32, 35, 3, 19, 27, 45, 11, 0, 16, 44, 20, 31, 1, 18, 10, 36, 42, 38, 9, 49, 26, 12, 25, 34, 2, 28, 37, 4, 30, 47, 22, 15, 29, 43, 5, 8, 6, 24, 21, 33, 7, 48, 23, 46), 1143)
33: ((41, 40, 39, 13, 17, 14, 32, 35, 3, 19, 27, 45, 11, 0, 16, 44, 20, 31, 1, 18, 10, 36, 42, 38, 9, 49, 26, 12, 25, 34, 2, 28, 37, 4, 30, 47, 22, 15, 29, 43, 5, 8, 6, 24, 21, 33, 7, 48, 23, 46), 1143)
34: ((44, 9, 27, 32, 20, 15, 18, 47, 26, 2, 10, 37, 1, 21, 46, 41, 43, 33, 34, 40, 30, 23, 6, 39, 3, 49, 35, 13, 25, 17, 31, 19, 36, 11, 0, 24, 4, 45, 7, 14, 16, 28, 29, 5, 12, 48, 8, 42, 38, 22), 1133)
35: ((44, 9, 27, 32, 20, 15, 18, 47, 26, 2, 10, 37, 1, 21, 46, 41, 43, 33, 34, 40, 30, 23, 6, 39, 3, 49, 35, 13, 25, 17, 31, 19, 36, 11, 0, 24, 4, 45, 7, 14, 16, 28, 29, 5, 12, 48, 8, 42, 38, 22), 1133)
36: ((44, 9, 27, 32, 20, 15, 18, 47, 26, 2, 10, 37, 1, 21, 46, 41, 43, 33, 34, 40, 30, 23, 6, 39, 3, 49, 35, 13, 25, 17, 31, 19, 36, 11, 0, 24, 4, 45, 7, 14, 16, 28, 29, 5, 12, 48, 8, 42, 38, 22), 1133)
37: ((44, 9, 27, 32, 20, 15, 18, 47, 26, 2, 10, 37, 1, 21, 46, 41, 43, 33, 34, 40, 30, 23, 6, 39, 3, 49, 35, 13, 25, 17, 31, 19, 36, 11, 0, 24, 4, 45, 7, 14, 16, 28, 29, 5, 12, 48, 8, 42, 38, 22), 1133)
38: ((44, 9, 27, 32, 20, 15, 18, 47, 26, 2, 10, 37, 1, 21, 46, 41, 43, 33, 34, 40, 30, 23, 6, 39, 3, 49, 35, 13, 25, 17, 31, 19, 36, 11, 0, 24, 4, 45, 7, 14, 16, 28, 29, 5, 12, 48, 8, 42, 38, 22), 1133)
39: ((44, 9, 27, 32, 20, 15, 18, 47, 26, 2, 10, 37, 1, 21, 46, 41, 43, 33, 34, 40, 30, 23, 6, 39, 3, 49, 35, 13, 25, 17, 31, 19, 36, 11, 0, 24, 4, 45, 7, 14, 16, 28, 29, 5, 12, 48, 8, 42, 38, 22), 1133)
40: ((44, 9, 27, 32, 20, 15, 18, 47, 26, 2, 10, 37, 1, 21, 46, 41, 43, 33, 34, 40, 30, 23, 6, 39, 3, 49, 35, 13, 25, 17, 31, 19, 36, 11, 0, 24, 4, 45, 7, 14, 16, 28, 29, 5, 12, 48, 8, 42, 38, 22), 1133)
41: ((44, 9, 27, 32, 20, 15, 18, 47, 26, 2, 10, 37, 1, 21, 46, 41, 43, 33, 34, 40, 30, 23, 6, 39, 3, 49, 35, 13, 25, 17, 31, 19, 36, 11, 0, 24, 4, 45, 7, 14, 16, 28, 29, 5, 12, 48, 8, 42, 38, 22), 1133)
42: ((44, 9, 27, 32, 20, 15, 18, 47, 26, 2, 10, 37, 1, 21, 46, 41, 43, 33, 34, 40, 30, 23, 6, 39, 3, 49, 35, 13, 25, 17, 31, 19, 36, 11, 0, 24, 4, 45, 7, 14, 16, 28, 29, 5, 12, 48, 8, 42, 38, 22), 1133)
43: ((44, 9, 27, 32, 20, 15, 18, 47, 26, 2, 10, 37, 1, 21, 46, 41, 43, 33, 34, 40, 30, 23, 6, 39, 3, 49, 35, 13, 25, 17, 31, 19, 36, 11, 0, 24, 4, 45, 7, 14, 16, 28, 29, 5, 12, 48, 8, 42, 38, 22), 1133)
44: ((44, 9, 27, 32, 20, 15, 18, 47, 26, 2, 10, 37, 1, 21, 46, 41, 43, 33, 34, 40, 30, 23, 6, 39, 3, 49, 35, 13, 25, 17, 31, 19, 36, 11, 0, 24, 4, 45, 7, 14, 16, 28, 29, 5, 12, 48, 8, 42, 38, 22), 1133)
45: ((44, 9, 27, 32, 20, 15, 18, 47, 26, 2, 10, 37, 1, 21, 46, 41, 43, 33, 34, 40, 30, 23, 6, 39, 3, 49, 35, 13, 25, 17, 31, 19, 36, 11, 0, 24, 4, 45, 7, 14, 16, 28, 29, 5, 12, 48, 8, 42, 38, 22), 1133)
46: ((44, 9, 27, 32, 20, 15, 18, 47, 26, 2, 10, 37, 1, 21, 46, 41, 43, 33, 34, 40, 30, 23, 6, 39, 3, 49, 35, 13, 25, 17, 31, 19, 36, 11, 0, 24, 4, 45, 7, 14, 16, 28, 29, 5, 12, 48, 8, 42, 38, 22), 1133)
47: ((44, 9, 27, 32, 20, 15, 18, 47, 26, 2, 10, 37, 1, 21, 46, 41, 43, 33, 34, 40, 30, 23, 6, 39, 3, 49, 35, 13, 25, 17, 31, 19, 36, 11, 0, 24, 4, 45, 7, 14, 16, 28, 29, 5, 12, 48, 8, 42, 38, 22), 1133)
48: ((44, 9, 27, 32, 20, 15, 18, 47, 26, 2, 10, 37, 1, 21, 46, 41, 43, 33, 34, 40, 30, 23, 6, 39, 3, 49, 35, 13, 25, 17, 31, 19, 36, 11, 0, 24, 4, 45, 7, 14, 16, 28, 29, 5, 12, 48, 8, 42, 38, 22), 1133)
49: ((44, 9, 27, 32, 20, 15, 18, 47, 26, 2, 10, 37, 1, 21, 46, 41, 43, 33, 34, 40, 30, 23, 6, 39, 3, 49, 35, 13, 25, 17, 31, 19, 36, 11, 0, 24, 4, 45, 7, 14, 16, 28, 29, 5, 12, 48, 8, 42, 38, 22), 1133)
50: ((44, 9, 27, 32, 20, 15, 18, 47, 26, 2, 10, 37, 1, 21, 46, 41, 43, 33, 34, 40, 30, 23, 6, 39, 3, 49, 35, 13, 25, 17, 31, 19, 36, 11, 0, 24, 4, 45, 7, 14, 16, 28, 29, 5, 12, 48, 8, 42, 38, 22), 1133)
51: ((44, 9, 27, 32, 20, 15, 18, 47, 26, 2, 10, 37, 1, 21, 46, 41, 43, 33, 34, 40, 30, 23, 6, 39, 3, 49, 35, 13, 25, 17, 31, 19, 36, 11, 0, 24, 4, 45, 7, 14, 16, 28, 29, 5, 12, 48, 8, 42, 38, 22), 1133)
52: ((44, 9, 27, 32, 20, 15, 18, 47, 26, 2, 10, 37, 1, 21, 46, 41, 43, 33, 34, 40, 30, 23, 6, 39, 3, 49, 35, 13, 25, 17, 31, 19, 36, 11, 0, 24, 4, 45, 7, 14, 16, 28, 29, 5, 12, 48, 8, 42, 38, 22), 1133)
53: ((44, 9, 27, 32, 20, 15, 18, 47, 26, 2, 10, 37, 1, 21, 46, 41, 43, 33, 34, 40, 30, 23, 6, 39, 3, 49, 35, 13, 25, 17, 31, 19, 36, 11, 0, 24, 4, 45, 7, 14, 16, 28, 29, 5, 12, 48, 8, 42, 38, 22), 1133)
54: ((44, 9, 27, 32, 20, 15, 18, 47, 26, 2, 10, 37, 1, 21, 46, 41, 43, 33, 34, 40, 30, 23, 6, 39, 3, 49, 35, 13, 25, 17, 31, 19, 36, 11, 0, 24, 4, 45, 7, 14, 16, 28, 29, 5, 12, 48, 8, 42, 38, 22), 1133)
55: ((44, 9, 27, 32, 20, 15, 18, 47, 26, 2, 10, 37, 1, 21, 46, 41, 43, 33, 34, 40, 30, 23, 6, 39, 3, 49, 35, 13, 25, 17, 31, 19, 36, 11, 0, 24, 4, 45, 7, 14, 16, 28, 29, 5, 12, 48, 8, 42, 38, 22), 1133)
56: ((44, 9, 27, 32, 20, 15, 18, 47, 26, 2, 10, 37, 1, 21, 46, 41, 43, 33, 34, 40, 30, 23, 6, 39, 3, 49, 35, 13, 25, 17, 31, 19, 36, 11, 0, 24, 4, 45, 7, 14, 16, 28, 29, 5, 12, 48, 8, 42, 38, 22), 1133)
57: ((44, 9, 27, 32, 20, 15, 18, 47, 26, 2, 10, 37, 1, 21, 46, 41, 43, 33, 34, 40, 30, 23, 6, 39, 3, 49, 35, 13, 25, 17, 31, 19, 36, 11, 0, 24, 4, 45, 7, 14, 16, 28, 29, 5, 12, 48, 8, 42, 38, 22), 1133)
58: ((44, 9, 27, 32, 20, 15, 18, 47, 26, 2, 10, 37, 1, 21, 46, 41, 43, 33, 34, 40, 30, 23, 6, 39, 3, 49, 35, 13, 25, 17, 31, 19, 36, 11, 0, 24, 4, 45, 7, 14, 16, 28, 29, 5, 12, 48, 8, 42, 38, 22), 1133)
59: ((44, 9, 27, 32, 20, 15, 18, 47, 26, 2, 10, 37, 1, 21, 46, 41, 43, 33, 34, 40, 30, 23, 6, 39, 3, 49, 35, 13, 25, 17, 31, 19, 36, 11, 0, 24, 4, 45, 7, 14, 16, 28, 29, 5, 12, 48, 8, 42, 38, 22), 1133)
60: ((44, 9, 27, 32, 20, 15, 18, 47, 26, 2, 10, 37, 1, 21, 46, 41, 43, 33, 34, 40, 30, 23, 6, 39, 3, 49, 35, 13, 25, 17, 31, 19, 36, 11, 0, 24, 4, 45, 7, 14, 16, 28, 29, 5, 12, 48, 8, 42, 38, 22), 1133)
61: ((44, 9, 27, 32, 20, 15, 18, 47, 26, 2, 10, 37, 1, 21, 46, 41, 43, 33, 34, 40, 30, 23, 6, 39, 3, 49, 35, 13, 25, 17, 31, 19, 36, 11, 0, 24, 4, 45, 7, 14, 16, 28, 29, 5, 12, 48, 8, 42, 38, 22), 1133)
62: ((44, 9, 27, 32, 20, 15, 18, 47, 26, 2, 10, 37, 1, 21, 46, 41, 43, 33, 34, 40, 30, 23, 6, 39, 3, 49, 35, 13, 25, 17, 31, 19, 36, 11, 0, 24, 4, 45, 7, 14, 16, 28, 29, 5, 12, 48, 8, 42, 38, 22), 1133)
63: ((44, 9, 27, 32, 20, 15, 18, 47, 26, 2, 10, 37, 1, 21, 46, 41, 43, 33, 34, 40, 30, 23, 6, 39, 3, 49, 35, 13, 25, 17, 31, 19, 36, 11, 0, 24, 4, 45, 7, 14, 16, 28, 29, 5, 12, 48, 8, 42, 38, 22), 1133)
64: ((44, 9, 27, 32, 20, 15, 18, 47, 26, 2, 10, 37, 1, 21, 46, 41, 43, 33, 34, 40, 30, 23, 6, 39, 3, 49, 35, 13, 25, 17, 31, 19, 36, 11, 0, 24, 4, 45, 7, 14, 16, 28, 29, 5, 12, 48, 8, 42, 38, 22), 1133)
65: ((44, 9, 27, 32, 20, 15, 18, 47, 26, 2, 10, 37, 1, 21, 46, 41, 43, 33, 34, 40, 30, 23, 6, 39, 3, 49, 35, 13, 25, 17, 31, 19, 36, 11, 0, 24, 4, 45, 7, 14, 16, 28, 29, 5, 12, 48, 8, 42, 38, 22), 1133)
66: ((44, 9, 27, 32, 20, 15, 18, 47, 26, 2, 10, 37, 1, 21, 46, 41, 43, 33, 34, 40, 30, 23, 6, 39, 3, 49, 35, 13, 25, 17, 31, 19, 36, 11, 0, 24, 4, 45, 7, 14, 16, 28, 29, 5, 12, 48, 8, 42, 38, 22), 1133)
67: ((44, 9, 27, 32, 20, 15, 18, 47, 26, 2, 10, 37, 1, 21, 46, 41, 43, 33, 34, 40, 30, 23, 6, 39, 3, 49, 35, 13, 25, 17, 31, 19, 36, 11, 0, 24, 4, 45, 7, 14, 16, 28, 29, 5, 12, 48, 8, 42, 38, 22), 1133)
68: ((44, 9, 27, 32, 20, 15, 18, 47, 26, 2, 10, 37, 1, 21, 46, 41, 43, 33, 34, 40, 30, 23, 6, 39, 3, 49, 35, 13, 25, 17, 31, 19, 36, 11, 0, 24, 4, 45, 7, 14, 16, 28, 29, 5, 12, 48, 8, 42, 38, 22), 1133)
69: ((44, 9, 27, 32, 20, 15, 18, 47, 26, 2, 10, 37, 1, 21, 46, 41, 43, 33, 34, 40, 30, 23, 6, 39, 3, 49, 35, 13, 25, 17, 31, 19, 36, 11, 0, 24, 4, 45, 7, 14, 16, 28, 29, 5, 12, 48, 8, 42, 38, 22), 1133)
70: ((44, 9, 27, 32, 20, 15, 18, 47, 26, 2, 10, 37, 1, 21, 46, 41, 43, 33, 34, 40, 30, 23, 6, 39, 3, 49, 35, 13, 25, 17, 31, 19, 36, 11, 0, 24, 4, 45, 7, 14, 16, 28, 29, 5, 12, 48, 8, 42, 38, 22), 1133)
71: ((44, 9, 27, 32, 20, 15, 18, 47, 26, 2, 10, 37, 1, 21, 46, 41, 43, 33, 34, 40, 30, 23, 6, 39, 3, 49, 35, 13, 25, 17, 31, 19, 36, 11, 0, 24, 4, 45, 7, 14, 16, 28, 29, 5, 12, 48, 8, 42, 38, 22), 1133)
72: ((44, 9, 27, 32, 20, 15, 18, 47, 26, 2, 10, 37, 1, 21, 46, 41, 43, 33, 34, 40, 30, 23, 6, 39, 3, 49, 35, 13, 25, 17, 31, 19, 36, 11, 0, 24, 4, 45, 7, 14, 16, 28, 29, 5, 12, 48, 8, 42, 38, 22), 1133)
73: ((44, 9, 27, 32, 20, 15, 18, 47, 26, 2, 10, 37, 1, 21, 46, 41, 43, 33, 34, 40, 30, 23, 6, 39, 3, 49, 35, 13, 25, 17, 31, 19, 36, 11, 0, 24, 4, 45, 7, 14, 16, 28, 29, 5, 12, 48, 8, 42, 38, 22), 1133)
74: ((48, 44, 27, 32, 15, 14, 26, 2, 41, 43, 34, 30, 23, 39, 3, 35, 18, 8, 25, 17, 36, 24, 4, 49, 42, 19, 33, 40, 31, 37, 21, 47, 6, 10, 13, 46, 45, 7, 1, 22, 0, 20, 9, 38, 12, 5, 28, 11, 16, 29), 1128)
75: ((48, 44, 27, 32, 15, 14, 26, 2, 41, 43, 34, 30, 23, 39, 3, 35, 18, 8, 25, 17, 36, 24, 4, 49, 42, 19, 33, 40, 31, 37, 21, 47, 6, 10, 13, 46, 45, 7, 1, 22, 0, 20, 9, 38, 12, 5, 28, 11, 16, 29), 1128)
76: ((48, 44, 27, 32, 15, 14, 26, 2, 41, 43, 34, 30, 23, 39, 3, 35, 18, 8, 25, 17, 36, 24, 4, 49, 42, 19, 33, 40, 31, 37, 21, 47, 6, 10, 13, 46, 45, 7, 1, 22, 0, 20, 9, 38, 12, 5, 28, 11, 16, 29), 1128)
77: ((48, 44, 27, 32, 15, 14, 26, 2, 41, 43, 34, 30, 23, 39, 3, 35, 18, 8, 25, 17, 36, 24, 4, 49, 42, 19, 33, 40, 31, 37, 21, 47, 6, 10, 13, 46, 45, 7, 1, 22, 0, 20, 9, 38, 12, 5, 28, 11, 16, 29), 1128)
78: ((48, 44, 27, 32, 15, 14, 26, 2, 41, 43, 34, 30, 23, 39, 3, 35, 18, 8, 25, 17, 36, 24, 4, 49, 42, 19, 33, 40, 31, 37, 21, 47, 6, 10, 13, 46, 45, 7, 1, 22, 0, 20, 9, 38, 12, 5, 28, 11, 16, 29), 1128)
79: ((48, 44, 27, 32, 15, 14, 26, 2, 41, 43, 34, 30, 23, 39, 3, 35, 18, 8, 25, 17, 36, 24, 4, 49, 42, 19, 33, 40, 31, 37, 21, 47, 6, 10, 13, 46, 45, 7, 1, 22, 0, 20, 9, 38, 12, 5, 28, 11, 16, 29), 1128)
80: ((48, 44, 27, 32, 15, 14, 26, 2, 41, 43, 34, 30, 23, 39, 3, 35, 18, 8, 25, 17, 36, 24, 4, 49, 42, 19, 33, 40, 31, 37, 21, 47, 6, 10, 13, 46, 45, 7, 1, 22, 0, 20, 9, 38, 12, 5, 28, 11, 16, 29), 1128)
81: ((27, 1, 22, 48, 32, 41, 26, 45, 20, 37, 47, 10, 46, 21, 5, 43, 33, 34, 24, 4, 16, 44, 28, 9, 12, 38, 15, 40, 30, 23, 6, 39, 3, 49, 35, 13, 18, 8, 25, 17, 7, 31, 19, 36, 11, 0, 14, 2, 29, 42), 1124)
82: ((27, 1, 22, 48, 32, 41, 26, 45, 20, 37, 47, 10, 46, 21, 5, 43, 33, 34, 24, 4, 16, 44, 28, 9, 12, 38, 15, 40, 30, 23, 6, 39, 3, 49, 35, 13, 18, 8, 25, 17, 7, 31, 19, 36, 11, 0, 14, 2, 29, 42), 1124)
83: ((27, 1, 22, 48, 32, 41, 26, 45, 20, 37, 47, 10, 46, 21, 5, 43, 33, 34, 24, 4, 16, 44, 28, 9, 12, 38, 15, 40, 30, 23, 6, 39, 3, 49, 35, 13, 18, 8, 25, 17, 7, 31, 19, 36, 11, 0, 14, 2, 29, 42), 1124)
84: ((27, 1, 22, 48, 32, 41, 26, 45, 20, 37, 47, 10, 46, 21, 5, 43, 33, 34, 24, 4, 16, 44, 28, 9, 12, 38, 15, 40, 30, 23, 6, 39, 3, 49, 35, 13, 18, 8, 25, 17, 7, 31, 19, 36, 11, 0, 14, 2, 29, 42), 1124)
85: ((27, 1, 22, 48, 32, 41, 26, 45, 20, 37, 47, 10, 46, 21, 5, 43, 33, 34, 24, 4, 16, 44, 28, 9, 12, 38, 15, 40, 30, 23, 6, 39, 3, 49, 35, 13, 18, 8, 25, 17, 7, 31, 19, 36, 11, 0, 14, 2, 29, 42), 1124)
86: ((27, 1, 22, 48, 32, 41, 26, 45, 20, 37, 47, 10, 46, 21, 5, 43, 33, 34, 24, 4, 16, 44, 28, 9, 12, 38, 15, 40, 30, 23, 6, 39, 3, 49, 35, 13, 18, 8, 25, 17, 7, 31, 19, 36, 11, 0, 14, 2, 29, 42), 1124)
87: ((27, 1, 22, 48, 32, 41, 26, 45, 20, 37, 47, 10, 46, 21, 5, 43, 33, 34, 24, 4, 16, 44, 28, 9, 12, 38, 15, 40, 30, 23, 6, 39, 3, 49, 35, 13, 18, 8, 25, 17, 7, 31, 19, 36, 11, 0, 14, 2, 29, 42), 1124)
88: ((27, 1, 22, 48, 32, 41, 26, 45, 20, 37, 47, 10, 46, 21, 5, 43, 33, 34, 24, 4, 16, 44, 28, 9, 12, 38, 15, 40, 30, 23, 6, 39, 3, 49, 35, 13, 18, 8, 25, 17, 7, 31, 19, 36, 11, 0, 14, 2, 29, 42), 1124)
89: ((27, 1, 22, 48, 32, 41, 26, 45, 20, 37, 47, 10, 46, 21, 5, 43, 33, 34, 24, 4, 16, 44, 28, 9, 12, 38, 15, 40, 30, 23, 6, 39, 3, 49, 35, 13, 18, 8, 25, 17, 7, 31, 19, 36, 11, 0, 14, 2, 29, 42), 1124)
90: ((27, 1, 22, 48, 32, 41, 26, 45, 20, 37, 47, 10, 46, 21, 5, 43, 33, 34, 24, 4, 16, 44, 28, 9, 12, 38, 15, 40, 30, 23, 6, 39, 3, 49, 35, 13, 18, 8, 25, 17, 7, 31, 19, 36, 11, 0, 14, 2, 29, 42), 1124)
91: ((27, 1, 22, 48, 32, 41, 26, 45, 20, 37, 47, 10, 46, 21, 5, 43, 33, 34, 24, 4, 16, 44, 28, 9, 12, 38, 15, 40, 30, 23, 6, 39, 3, 49, 35, 13, 18, 8, 25, 17, 7, 31, 19, 36, 11, 0, 14, 2, 29, 42), 1124)
92: ((27, 1, 22, 48, 32, 41, 26, 45, 20, 37, 47, 10, 46, 21, 5, 43, 33, 34, 24, 4, 16, 44, 28, 9, 12, 38, 15, 40, 30, 23, 6, 39, 3, 49, 35, 13, 18, 8, 25, 17, 7, 31, 19, 36, 11, 0, 14, 2, 29, 42), 1124)
93: ((27, 1, 22, 48, 32, 41, 26, 45, 20, 37, 47, 10, 46, 21, 5, 43, 33, 34, 24, 4, 16, 44, 28, 9, 12, 38, 15, 40, 30, 23, 6, 39, 3, 49, 35, 13, 18, 8, 25, 17, 7, 31, 19, 36, 11, 0, 14, 2, 29, 42), 1124)
94: ((27, 1, 22, 48, 32, 41, 26, 45, 20, 37, 47, 10, 46, 21, 5, 43, 33, 34, 24, 4, 16, 44, 28, 9, 12, 38, 15, 40, 30, 23, 6, 39, 3, 49, 35, 13, 18, 8, 25, 17, 7, 31, 19, 36, 11, 0, 14, 2, 29, 42), 1124)
95: ((27, 1, 22, 48, 32, 41, 26, 45, 20, 37, 47, 10, 46, 21, 5, 43, 33, 34, 24, 4, 16, 44, 28, 9, 12, 38, 15, 40, 30, 23, 6, 39, 3, 49, 35, 13, 18, 8, 25, 17, 7, 31, 19, 36, 11, 0, 14, 2, 29, 42), 1124)
Best: ((27, 1, 22, 48, 32, 41, 26, 45, 20, 37, 47, 10, 46, 21, 5, 43, 33, 34, 24, 4, 16, 44, 28, 9, 12, 38, 15, 40, 30, 23, 6, 39, 3, 49, 35, 13, 18, 8, 25, 17, 7, 31, 19, 36, 11, 0, 14, 2, 29, 42), 1124)
Runtime: 212.9645618 s